c Modular CNF with 5 modules
c Generated CNF instance
p cnf 90 1440
4 1 9 0
4 1 -9 0
4 -1 9 0
-4 1 9 0
8 18 5 0
8 18 -5 0
8 -18 5 0
-8 18 5 0
4 3 14 0
4 3 -14 0
4 -3 14 0
-4 3 14 0
2 1 3 0
2 1 -3 0
2 -1 3 0
-2 1 3 0
7 8 1 0
7 8 -1 0
7 -8 1 0
-7 8 1 0
18 7 14 0
18 7 -14 0
18 -7 14 0
-18 7 14 0
8 15 9 0
8 15 -9 0
8 -15 9 0
-8 15 9 0
1 6 14 0
1 6 -14 0
1 -6 14 0
-1 6 14 0
11 9 5 0
11 9 -5 0
11 -9 5 0
-11 9 5 0
7 11 4 0
7 11 -4 0
7 -11 4 0
-7 11 4 0
3 13 4 0
3 13 -4 0
3 -13 4 0
-3 13 4 0
12 18 9 0
12 18 -9 0
12 -18 9 0
-12 18 9 0
2 15 4 0
2 15 -4 0
2 -15 4 0
-2 15 4 0
13 3 10 0
13 3 -10 0
13 -3 10 0
-13 3 10 0
12 7 3 0
12 7 -3 0
12 -7 3 0
-12 7 3 0
2 8 10 0
2 8 -10 0
2 -8 10 0
-2 8 10 0
3 8 4 0
3 8 -4 0
3 -8 4 0
-3 8 4 0
13 9 15 0
13 9 -15 0
13 -9 15 0
-13 9 15 0
12 6 18 0
12 6 -18 0
12 -6 18 0
-12 6 18 0
12 7 9 0
12 7 -9 0
12 -7 9 0
-12 7 9 0
3 6 8 0
3 6 -8 0
3 -6 8 0
-3 6 8 0
6 15 13 0
6 15 -13 0
6 -15 13 0
-6 15 13 0
9 8 11 0
9 8 -11 0
9 -8 11 0
-9 8 11 0
2 8 18 0
2 8 -18 0
2 -8 18 0
-2 8 18 0
11 13 9 0
11 13 -9 0
11 -13 9 0
-11 13 9 0
3 7 11 0
3 7 -11 0
3 -7 11 0
-3 7 11 0
7 16 13 0
7 16 -13 0
7 -16 13 0
-7 16 13 0
15 5 9 0
15 5 -9 0
15 -5 9 0
-15 5 9 0
5 8 9 0
5 8 -9 0
5 -8 9 0
-5 8 9 0
14 13 12 0
14 13 -12 0
14 -13 12 0
-14 13 12 0
8 5 16 0
8 5 -16 0
8 -5 16 0
-8 5 16 0
3 2 4 0
3 2 -4 0
3 -2 4 0
-3 2 4 0
5 6 14 0
5 6 -14 0
5 -6 14 0
-5 6 14 0
3 13 17 0
3 13 -17 0
3 -13 17 0
-3 13 17 0
15 17 9 0
15 17 -9 0
15 -17 9 0
-15 17 9 0
18 1 4 0
18 1 -4 0
18 -1 4 0
-18 1 4 0
18 9 11 0
18 9 -11 0
18 -9 11 0
-18 9 11 0
4 10 14 0
4 10 -14 0
4 -10 14 0
-4 10 14 0
6 15 1 0
6 15 -1 0
6 -15 1 0
-6 15 1 0
9 17 6 0
9 17 -6 0
9 -17 6 0
-9 17 6 0
17 4 10 0
17 4 -10 0
17 -4 10 0
-17 4 10 0
17 7 5 0
17 7 -5 0
17 -7 5 0
-17 7 5 0
12 6 1 0
12 6 -1 0
12 -6 1 0
-12 6 1 0
11 16 1 0
11 16 -1 0
11 -16 1 0
-11 16 1 0
4 12 10 0
4 12 -10 0
4 -12 10 0
-4 12 10 0
8 2 18 0
8 2 -18 0
8 -2 18 0
-8 2 18 0
3 18 16 0
3 18 -16 0
3 -18 16 0
-3 18 16 0
3 5 17 0
3 5 -17 0
3 -5 17 0
-3 5 17 0
16 6 9 0
16 6 -9 0
16 -6 9 0
-16 6 9 0
17 14 7 0
17 14 -7 0
17 -14 7 0
-17 14 7 0
18 7 10 0
18 7 -10 0
18 -7 10 0
-18 7 10 0
13 12 15 0
13 12 -15 0
13 -12 15 0
-13 12 15 0
17 15 4 0
17 15 -4 0
17 -15 4 0
-17 15 4 0
8 18 3 0
8 18 -3 0
8 -18 3 0
-8 18 3 0
11 1 8 0
11 1 -8 0
11 -1 8 0
-11 1 8 0
8 1 3 0
8 1 -3 0
8 -1 3 0
-8 1 3 0
2 8 3 0
2 8 -3 0
2 -8 3 0
-2 8 3 0
2 11 3 0
2 11 -3 0
2 -11 3 0
-2 11 3 0
17 8 9 0
17 8 -9 0
17 -8 9 0
-17 8 9 0
16 7 5 0
16 7 -5 0
16 -7 5 0
-16 7 5 0
16 8 18 0
16 8 -18 0
16 -8 18 0
-16 8 18 0
14 7 4 0
14 7 -4 0
14 -7 4 0
-14 7 4 0
4 14 12 0
4 14 -12 0
4 -14 12 0
-4 14 12 0
14 18 15 0
14 18 -15 0
14 -18 15 0
-14 18 15 0
2 4 18 0
2 4 -18 0
2 -4 18 0
-2 4 18 0
13 11 4 0
13 11 -4 0
13 -11 4 0
-13 11 4 0
8 7 17 0
8 7 -17 0
8 -7 17 0
-8 7 17 0
18 15 5 0
18 15 -5 0
18 -15 5 0
-18 15 5 0
14 6 9 0
14 6 -9 0
14 -6 9 0
-14 6 9 0
15 8 3 0
15 8 -3 0
15 -8 3 0
-15 8 3 0
15 4 2 0
15 4 -2 0
15 -4 2 0
-15 4 2 0
18 1 3 0
18 1 -3 0
18 -1 3 0
-18 1 3 0
26 24 32 0
26 24 -32 0
26 -24 32 0
-26 24 32 0
34 36 25 0
34 36 -25 0
34 -36 25 0
-34 36 25 0
31 20 24 0
31 20 -24 0
31 -20 24 0
-31 20 24 0
31 19 36 0
31 19 -36 0
31 -19 36 0
-31 19 36 0
27 33 28 0
27 33 -28 0
27 -33 28 0
-27 33 28 0
32 34 23 0
32 34 -23 0
32 -34 23 0
-32 34 23 0
25 28 36 0
25 28 -36 0
25 -28 36 0
-25 28 36 0
20 36 29 0
20 36 -29 0
20 -36 29 0
-20 36 29 0
20 36 34 0
20 36 -34 0
20 -36 34 0
-20 36 34 0
35 36 24 0
35 36 -24 0
35 -36 24 0
-35 36 24 0
20 35 21 0
20 35 -21 0
20 -35 21 0
-20 35 21 0
24 21 35 0
24 21 -35 0
24 -21 35 0
-24 21 35 0
26 31 22 0
26 31 -22 0
26 -31 22 0
-26 31 22 0
26 20 21 0
26 20 -21 0
26 -20 21 0
-26 20 21 0
32 35 29 0
32 35 -29 0
32 -35 29 0
-32 35 29 0
27 25 29 0
27 25 -29 0
27 -25 29 0
-27 25 29 0
26 27 31 0
26 27 -31 0
26 -27 31 0
-26 27 31 0
23 28 33 0
23 28 -33 0
23 -28 33 0
-23 28 33 0
29 21 19 0
29 21 -19 0
29 -21 19 0
-29 21 19 0
33 22 21 0
33 22 -21 0
33 -22 21 0
-33 22 21 0
36 25 27 0
36 25 -27 0
36 -25 27 0
-36 25 27 0
23 30 21 0
23 30 -21 0
23 -30 21 0
-23 30 21 0
26 30 28 0
26 30 -28 0
26 -30 28 0
-26 30 28 0
24 33 28 0
24 33 -28 0
24 -33 28 0
-24 33 28 0
35 19 28 0
35 19 -28 0
35 -19 28 0
-35 19 28 0
22 23 27 0
22 23 -27 0
22 -23 27 0
-22 23 27 0
22 36 23 0
22 36 -23 0
22 -36 23 0
-22 36 23 0
27 28 25 0
27 28 -25 0
27 -28 25 0
-27 28 25 0
29 25 27 0
29 25 -27 0
29 -25 27 0
-29 25 27 0
35 34 27 0
35 34 -27 0
35 -34 27 0
-35 34 27 0
20 21 32 0
20 21 -32 0
20 -21 32 0
-20 21 32 0
27 20 19 0
27 20 -19 0
27 -20 19 0
-27 20 19 0
29 23 27 0
29 23 -27 0
29 -23 27 0
-29 23 27 0
24 33 32 0
24 33 -32 0
24 -33 32 0
-24 33 32 0
36 19 22 0
36 19 -22 0
36 -19 22 0
-36 19 22 0
21 23 20 0
21 23 -20 0
21 -23 20 0
-21 23 20 0
30 23 32 0
30 23 -32 0
30 -23 32 0
-30 23 32 0
23 20 28 0
23 20 -28 0
23 -20 28 0
-23 20 28 0
30 20 36 0
30 20 -36 0
30 -20 36 0
-30 20 36 0
25 26 22 0
25 26 -22 0
25 -26 22 0
-25 26 22 0
30 32 23 0
30 32 -23 0
30 -32 23 0
-30 32 23 0
26 24 35 0
26 24 -35 0
26 -24 35 0
-26 24 35 0
32 19 24 0
32 19 -24 0
32 -19 24 0
-32 19 24 0
29 32 26 0
29 32 -26 0
29 -32 26 0
-29 32 26 0
27 24 22 0
27 24 -22 0
27 -24 22 0
-27 24 22 0
31 20 34 0
31 20 -34 0
31 -20 34 0
-31 20 34 0
26 25 33 0
26 25 -33 0
26 -25 33 0
-26 25 33 0
30 28 26 0
30 28 -26 0
30 -28 26 0
-30 28 26 0
26 19 25 0
26 19 -25 0
26 -19 25 0
-26 19 25 0
31 29 27 0
31 29 -27 0
31 -29 27 0
-31 29 27 0
21 27 30 0
21 27 -30 0
21 -27 30 0
-21 27 30 0
35 31 29 0
35 31 -29 0
35 -31 29 0
-35 31 29 0
19 22 27 0
19 22 -27 0
19 -22 27 0
-19 22 27 0
24 27 20 0
24 27 -20 0
24 -27 20 0
-24 27 20 0
22 32 30 0
22 32 -30 0
22 -32 30 0
-22 32 30 0
29 32 22 0
29 32 -22 0
29 -32 22 0
-29 32 22 0
31 25 27 0
31 25 -27 0
31 -25 27 0
-31 25 27 0
20 32 19 0
20 32 -19 0
20 -32 19 0
-20 32 19 0
35 25 30 0
35 25 -30 0
35 -25 30 0
-35 25 30 0
32 21 29 0
32 21 -29 0
32 -21 29 0
-32 21 29 0
29 22 28 0
29 22 -28 0
29 -22 28 0
-29 22 28 0
35 28 32 0
35 28 -32 0
35 -28 32 0
-35 28 32 0
29 31 28 0
29 31 -28 0
29 -31 28 0
-29 31 28 0
36 23 25 0
36 23 -25 0
36 -23 25 0
-36 23 25 0
32 31 24 0
32 31 -24 0
32 -31 24 0
-32 31 24 0
28 31 19 0
28 31 -19 0
28 -31 19 0
-28 31 19 0
28 36 25 0
28 36 -25 0
28 -36 25 0
-28 36 25 0
32 29 33 0
32 29 -33 0
32 -29 33 0
-32 29 33 0
33 36 25 0
33 36 -25 0
33 -36 25 0
-33 36 25 0
35 34 24 0
35 34 -24 0
35 -34 24 0
-35 34 24 0
21 28 29 0
21 28 -29 0
21 -28 29 0
-21 28 29 0
21 26 28 0
21 26 -28 0
21 -26 28 0
-21 26 28 0
44 43 41 0
44 43 -41 0
44 -43 41 0
-44 43 41 0
37 38 44 0
37 38 -44 0
37 -38 44 0
-37 38 44 0
52 39 51 0
52 39 -51 0
52 -39 51 0
-52 39 51 0
50 43 49 0
50 43 -49 0
50 -43 49 0
-50 43 49 0
52 49 44 0
52 49 -44 0
52 -49 44 0
-52 49 44 0
41 37 40 0
41 37 -40 0
41 -37 40 0
-41 37 40 0
50 44 42 0
50 44 -42 0
50 -44 42 0
-50 44 42 0
53 51 38 0
53 51 -38 0
53 -51 38 0
-53 51 38 0
54 44 40 0
54 44 -40 0
54 -44 40 0
-54 44 40 0
51 41 54 0
51 41 -54 0
51 -41 54 0
-51 41 54 0
53 47 51 0
53 47 -51 0
53 -47 51 0
-53 47 51 0
53 50 51 0
53 50 -51 0
53 -50 51 0
-53 50 51 0
42 52 51 0
42 52 -51 0
42 -52 51 0
-42 52 51 0
45 44 54 0
45 44 -54 0
45 -44 54 0
-45 44 54 0
53 52 44 0
53 52 -44 0
53 -52 44 0
-53 52 44 0
45 51 39 0
45 51 -39 0
45 -51 39 0
-45 51 39 0
46 44 45 0
46 44 -45 0
46 -44 45 0
-46 44 45 0
47 54 39 0
47 54 -39 0
47 -54 39 0
-47 54 39 0
41 54 44 0
41 54 -44 0
41 -54 44 0
-41 54 44 0
49 41 43 0
49 41 -43 0
49 -41 43 0
-49 41 43 0
39 50 53 0
39 50 -53 0
39 -50 53 0
-39 50 53 0
47 51 50 0
47 51 -50 0
47 -51 50 0
-47 51 50 0
38 43 50 0
38 43 -50 0
38 -43 50 0
-38 43 50 0
49 37 54 0
49 37 -54 0
49 -37 54 0
-49 37 54 0
52 37 48 0
52 37 -48 0
52 -37 48 0
-52 37 48 0
46 49 50 0
46 49 -50 0
46 -49 50 0
-46 49 50 0
54 44 52 0
54 44 -52 0
54 -44 52 0
-54 44 52 0
44 45 50 0
44 45 -50 0
44 -45 50 0
-44 45 50 0
52 37 49 0
52 37 -49 0
52 -37 49 0
-52 37 49 0
47 49 42 0
47 49 -42 0
47 -49 42 0
-47 49 42 0
51 41 37 0
51 41 -37 0
51 -41 37 0
-51 41 37 0
49 37 39 0
49 37 -39 0
49 -37 39 0
-49 37 39 0
50 41 51 0
50 41 -51 0
50 -41 51 0
-50 41 51 0
42 38 45 0
42 38 -45 0
42 -38 45 0
-42 38 45 0
49 47 43 0
49 47 -43 0
49 -47 43 0
-49 47 43 0
51 47 53 0
51 47 -53 0
51 -47 53 0
-51 47 53 0
49 45 50 0
49 45 -50 0
49 -45 50 0
-49 45 50 0
45 39 52 0
45 39 -52 0
45 -39 52 0
-45 39 52 0
37 38 48 0
37 38 -48 0
37 -38 48 0
-37 38 48 0
44 39 38 0
44 39 -38 0
44 -39 38 0
-44 39 38 0
37 44 43 0
37 44 -43 0
37 -44 43 0
-37 44 43 0
37 41 44 0
37 41 -44 0
37 -41 44 0
-37 41 44 0
41 52 40 0
41 52 -40 0
41 -52 40 0
-41 52 40 0
43 51 45 0
43 51 -45 0
43 -51 45 0
-43 51 45 0
48 42 40 0
48 42 -40 0
48 -42 40 0
-48 42 40 0
42 46 40 0
42 46 -40 0
42 -46 40 0
-42 46 40 0
37 46 49 0
37 46 -49 0
37 -46 49 0
-37 46 49 0
49 43 39 0
49 43 -39 0
49 -43 39 0
-49 43 39 0
44 40 46 0
44 40 -46 0
44 -40 46 0
-44 40 46 0
40 38 48 0
40 38 -48 0
40 -38 48 0
-40 38 48 0
54 50 48 0
54 50 -48 0
54 -50 48 0
-54 50 48 0
39 53 47 0
39 53 -47 0
39 -53 47 0
-39 53 47 0
37 50 52 0
37 50 -52 0
37 -50 52 0
-37 50 52 0
40 50 48 0
40 50 -48 0
40 -50 48 0
-40 50 48 0
51 41 50 0
51 41 -50 0
51 -41 50 0
-51 41 50 0
42 53 45 0
42 53 -45 0
42 -53 45 0
-42 53 45 0
54 52 51 0
54 52 -51 0
54 -52 51 0
-54 52 51 0
50 45 47 0
50 45 -47 0
50 -45 47 0
-50 45 47 0
44 39 45 0
44 39 -45 0
44 -39 45 0
-44 39 45 0
51 44 54 0
51 44 -54 0
51 -44 54 0
-51 44 54 0
49 47 37 0
49 47 -37 0
49 -47 37 0
-49 47 37 0
52 47 42 0
52 47 -42 0
52 -47 42 0
-52 47 42 0
52 43 48 0
52 43 -48 0
52 -43 48 0
-52 43 48 0
45 47 54 0
45 47 -54 0
45 -47 54 0
-45 47 54 0
45 37 43 0
45 37 -43 0
45 -37 43 0
-45 37 43 0
39 44 50 0
39 44 -50 0
39 -44 50 0
-39 44 50 0
52 44 54 0
52 44 -54 0
52 -44 54 0
-52 44 54 0
52 51 37 0
52 51 -37 0
52 -51 37 0
-52 51 37 0
39 46 44 0
39 46 -44 0
39 -46 44 0
-39 46 44 0
49 44 46 0
49 44 -46 0
49 -44 46 0
-49 44 46 0
48 52 54 0
48 52 -54 0
48 -52 54 0
-48 52 54 0
50 47 48 0
50 47 -48 0
50 -47 48 0
-50 47 48 0
69 63 64 0
69 63 -64 0
69 -63 64 0
-69 63 64 0
63 62 58 0
63 62 -58 0
63 -62 58 0
-63 62 58 0
61 65 58 0
61 65 -58 0
61 -65 58 0
-61 65 58 0
72 60 61 0
72 60 -61 0
72 -60 61 0
-72 60 61 0
61 70 63 0
61 70 -63 0
61 -70 63 0
-61 70 63 0
71 64 58 0
71 64 -58 0
71 -64 58 0
-71 64 58 0
61 64 62 0
61 64 -62 0
61 -64 62 0
-61 64 62 0
66 60 64 0
66 60 -64 0
66 -60 64 0
-66 60 64 0
55 59 63 0
55 59 -63 0
55 -59 63 0
-55 59 63 0
56 72 64 0
56 72 -64 0
56 -72 64 0
-56 72 64 0
59 70 58 0
59 70 -58 0
59 -70 58 0
-59 70 58 0
55 64 70 0
55 64 -70 0
55 -64 70 0
-55 64 70 0
70 69 65 0
70 69 -65 0
70 -69 65 0
-70 69 65 0
60 56 63 0
60 56 -63 0
60 -56 63 0
-60 56 63 0
70 58 57 0
70 58 -57 0
70 -58 57 0
-70 58 57 0
67 70 57 0
67 70 -57 0
67 -70 57 0
-67 70 57 0
56 59 71 0
56 59 -71 0
56 -59 71 0
-56 59 71 0
64 57 62 0
64 57 -62 0
64 -57 62 0
-64 57 62 0
58 68 62 0
58 68 -62 0
58 -68 62 0
-58 68 62 0
71 67 69 0
71 67 -69 0
71 -67 69 0
-71 67 69 0
69 64 68 0
69 64 -68 0
69 -64 68 0
-69 64 68 0
64 56 58 0
64 56 -58 0
64 -56 58 0
-64 56 58 0
61 72 63 0
61 72 -63 0
61 -72 63 0
-61 72 63 0
57 60 62 0
57 60 -62 0
57 -60 62 0
-57 60 62 0
60 57 72 0
60 57 -72 0
60 -57 72 0
-60 57 72 0
55 68 69 0
55 68 -69 0
55 -68 69 0
-55 68 69 0
70 64 56 0
70 64 -56 0
70 -64 56 0
-70 64 56 0
62 64 71 0
62 64 -71 0
62 -64 71 0
-62 64 71 0
69 57 62 0
69 57 -62 0
69 -57 62 0
-69 57 62 0
63 61 68 0
63 61 -68 0
63 -61 68 0
-63 61 68 0
58 62 59 0
58 62 -59 0
58 -62 59 0
-58 62 59 0
63 59 57 0
63 59 -57 0
63 -59 57 0
-63 59 57 0
56 60 64 0
56 60 -64 0
56 -60 64 0
-56 60 64 0
64 69 58 0
64 69 -58 0
64 -69 58 0
-64 69 58 0
69 64 67 0
69 64 -67 0
69 -64 67 0
-69 64 67 0
63 71 70 0
63 71 -70 0
63 -71 70 0
-63 71 70 0
69 57 56 0
69 57 -56 0
69 -57 56 0
-69 57 56 0
68 65 63 0
68 65 -63 0
68 -65 63 0
-68 65 63 0
55 57 62 0
55 57 -62 0
55 -57 62 0
-55 57 62 0
55 63 56 0
55 63 -56 0
55 -63 56 0
-55 63 56 0
60 70 69 0
60 70 -69 0
60 -70 69 0
-60 70 69 0
63 60 68 0
63 60 -68 0
63 -60 68 0
-63 60 68 0
70 57 72 0
70 57 -72 0
70 -57 72 0
-70 57 72 0
66 68 65 0
66 68 -65 0
66 -68 65 0
-66 68 65 0
65 58 60 0
65 58 -60 0
65 -58 60 0
-65 58 60 0
65 68 70 0
65 68 -70 0
65 -68 70 0
-65 68 70 0
64 67 56 0
64 67 -56 0
64 -67 56 0
-64 67 56 0
69 57 65 0
69 57 -65 0
69 -57 65 0
-69 57 65 0
63 65 58 0
63 65 -58 0
63 -65 58 0
-63 65 58 0
67 71 55 0
67 71 -55 0
67 -71 55 0
-67 71 55 0
72 69 68 0
72 69 -68 0
72 -69 68 0
-72 69 68 0
56 61 66 0
56 61 -66 0
56 -61 66 0
-56 61 66 0
70 69 56 0
70 69 -56 0
70 -69 56 0
-70 69 56 0
61 63 59 0
61 63 -59 0
61 -63 59 0
-61 63 59 0
64 69 70 0
64 69 -70 0
64 -69 70 0
-64 69 70 0
58 55 62 0
58 55 -62 0
58 -55 62 0
-58 55 62 0
60 64 55 0
60 64 -55 0
60 -64 55 0
-60 64 55 0
72 68 57 0
72 68 -57 0
72 -68 57 0
-72 68 57 0
62 58 69 0
62 58 -69 0
62 -58 69 0
-62 58 69 0
58 59 70 0
58 59 -70 0
58 -59 70 0
-58 59 70 0
64 71 63 0
64 71 -63 0
64 -71 63 0
-64 71 63 0
68 70 71 0
68 70 -71 0
68 -70 71 0
-68 70 71 0
62 69 59 0
62 69 -59 0
62 -69 59 0
-62 69 59 0
67 61 59 0
67 61 -59 0
67 -61 59 0
-67 61 59 0
57 63 68 0
57 63 -68 0
57 -63 68 0
-57 63 68 0
65 71 63 0
65 71 -63 0
65 -71 63 0
-65 71 63 0
55 64 71 0
55 64 -71 0
55 -64 71 0
-55 64 71 0
70 59 69 0
70 59 -69 0
70 -59 69 0
-70 59 69 0
72 70 66 0
72 70 -66 0
72 -70 66 0
-72 70 66 0
65 67 69 0
65 67 -69 0
65 -67 69 0
-65 67 69 0
65 61 62 0
65 61 -62 0
65 -61 62 0
-65 61 62 0
67 62 68 0
67 62 -68 0
67 -62 68 0
-67 62 68 0
74 83 88 0
74 83 -88 0
74 -83 88 0
-74 83 88 0
85 90 77 0
85 90 -77 0
85 -90 77 0
-85 90 77 0
88 74 77 0
88 74 -77 0
88 -74 77 0
-88 74 77 0
89 83 76 0
89 83 -76 0
89 -83 76 0
-89 83 76 0
87 76 90 0
87 76 -90 0
87 -76 90 0
-87 76 90 0
73 77 86 0
73 77 -86 0
73 -77 86 0
-73 77 86 0
77 75 88 0
77 75 -88 0
77 -75 88 0
-77 75 88 0
81 83 85 0
81 83 -85 0
81 -83 85 0
-81 83 85 0
75 83 85 0
75 83 -85 0
75 -83 85 0
-75 83 85 0
83 88 74 0
83 88 -74 0
83 -88 74 0
-83 88 74 0
75 80 82 0
75 80 -82 0
75 -80 82 0
-75 80 82 0
80 75 86 0
80 75 -86 0
80 -75 86 0
-80 75 86 0
76 90 87 0
76 90 -87 0
76 -90 87 0
-76 90 87 0
78 82 73 0
78 82 -73 0
78 -82 73 0
-78 82 73 0
74 83 90 0
74 83 -90 0
74 -83 90 0
-74 83 90 0
82 84 89 0
82 84 -89 0
82 -84 89 0
-82 84 89 0
86 77 80 0
86 77 -80 0
86 -77 80 0
-86 77 80 0
89 86 78 0
89 86 -78 0
89 -86 78 0
-89 86 78 0
78 90 75 0
78 90 -75 0
78 -90 75 0
-78 90 75 0
85 80 88 0
85 80 -88 0
85 -80 88 0
-85 80 88 0
77 80 87 0
77 80 -87 0
77 -80 87 0
-77 80 87 0
81 87 90 0
81 87 -90 0
81 -87 90 0
-81 87 90 0
73 87 82 0
73 87 -82 0
73 -87 82 0
-73 87 82 0
90 78 75 0
90 78 -75 0
90 -78 75 0
-90 78 75 0
87 84 82 0
87 84 -82 0
87 -84 82 0
-87 84 82 0
86 81 87 0
86 81 -87 0
86 -81 87 0
-86 81 87 0
82 79 85 0
82 79 -85 0
82 -79 85 0
-82 79 85 0
88 76 80 0
88 76 -80 0
88 -76 80 0
-88 76 80 0
85 84 82 0
85 84 -82 0
85 -84 82 0
-85 84 82 0
82 73 85 0
82 73 -85 0
82 -73 85 0
-82 73 85 0
81 73 74 0
81 73 -74 0
81 -73 74 0
-81 73 74 0
88 82 80 0
88 82 -80 0
88 -82 80 0
-88 82 80 0
84 80 79 0
84 80 -79 0
84 -80 79 0
-84 80 79 0
81 77 76 0
81 77 -76 0
81 -77 76 0
-81 77 76 0
74 82 87 0
74 82 -87 0
74 -82 87 0
-74 82 87 0
74 84 77 0
74 84 -77 0
74 -84 77 0
-74 84 77 0
75 82 83 0
75 82 -83 0
75 -82 83 0
-75 82 83 0
86 78 79 0
86 78 -79 0
86 -78 79 0
-86 78 79 0
77 84 81 0
77 84 -81 0
77 -84 81 0
-77 84 81 0
78 81 88 0
78 81 -88 0
78 -81 88 0
-78 81 88 0
82 83 76 0
82 83 -76 0
82 -83 76 0
-82 83 76 0
87 75 77 0
87 75 -77 0
87 -75 77 0
-87 75 77 0
80 85 84 0
80 85 -84 0
80 -85 84 0
-80 85 84 0
75 85 73 0
75 85 -73 0
75 -85 73 0
-75 85 73 0
81 76 87 0
81 76 -87 0
81 -76 87 0
-81 76 87 0
84 81 85 0
84 81 -85 0
84 -81 85 0
-84 81 85 0
84 76 80 0
84 76 -80 0
84 -76 80 0
-84 76 80 0
88 73 83 0
88 73 -83 0
88 -73 83 0
-88 73 83 0
80 75 87 0
80 75 -87 0
80 -75 87 0
-80 75 87 0
82 86 76 0
82 86 -76 0
82 -86 76 0
-82 86 76 0
77 74 89 0
77 74 -89 0
77 -74 89 0
-77 74 89 0
82 88 76 0
82 88 -76 0
82 -88 76 0
-82 88 76 0
76 80 77 0
76 80 -77 0
76 -80 77 0
-76 80 77 0
85 87 84 0
85 87 -84 0
85 -87 84 0
-85 87 84 0
90 86 77 0
90 86 -77 0
90 -86 77 0
-90 86 77 0
86 76 88 0
86 76 -88 0
86 -76 88 0
-86 76 88 0
86 81 74 0
86 81 -74 0
86 -81 74 0
-86 81 74 0
84 79 87 0
84 79 -87 0
84 -79 87 0
-84 79 87 0
87 80 84 0
87 80 -84 0
87 -80 84 0
-87 80 84 0
76 84 89 0
76 84 -89 0
76 -84 89 0
-76 84 89 0
74 85 81 0
74 85 -81 0
74 -85 81 0
-74 85 81 0
79 76 87 0
79 76 -87 0
79 -76 87 0
-79 76 87 0
75 79 73 0
75 79 -73 0
75 -79 73 0
-75 79 73 0
74 83 80 0
74 83 -80 0
74 -83 80 0
-74 83 80 0
77 79 75 0
77 79 -75 0
77 -79 75 0
-77 79 75 0
90 79 89 0
90 79 -89 0
90 -79 89 0
-90 79 89 0
80 83 77 0
80 83 -77 0
80 -83 77 0
-80 83 77 0
73 81 77 0
73 81 -77 0
73 -81 77 0
-73 81 77 0
77 81 78 0
77 81 -78 0
77 -81 78 0
-77 81 78 0
76 73 77 0
76 73 -77 0
76 -73 77 0
-76 73 77 0
73 84 80 0
73 84 -80 0
73 -84 80 0
-73 84 80 0
83 73 78 0
83 73 -78 0
83 -73 78 0
-83 73 78 0
